(set-option :print-success false)
(set-logic QF_UF)
(declare-sort x43 0)
(declare-sort x4 0)
(declare-fun x78 () x4)
(declare-fun x143 () x4)
(declare-fun x1 () x4)
(declare-fun x146 () x4)
(declare-fun x13 () x4)
(declare-fun x138 (x4 x4) x4)
(assert (not (and (= (x138 x146 x146) x78) (and (and (= (x138 x78 x146) x143) (= x1 (x138 x78 x78))) (= x13 (x138 x143 x1))))))
(assert (not (and (= (x138 x13 x13) x146) (and (= x78 (x138 x1 x143)) (and (= (x138 x146 x13) x1) (= x143 (x138 x146 x146)))))))
(assert (not (and (= x143 (x138 x13 x13)) (and (and (= (x138 x143 x143) x146) (= x1 (x138 x143 x13))) (= x78 (x138 x1 x146))))))
(assert (not (and (and (and (= x78 (x138 x143 x143)) (= x13 (x138 x143 x1))) (= (x138 x13 x78) x146)) (= (x138 x1 x1) x143))))
(assert (not (and (and (and (= x13 (x138 x78 x78)) (= x146 (x138 x78 x143))) (= x1 (x138 x146 x13))) (= (x138 x143 x143) x78))))
(assert (not (and (and (and (= (x138 x143 x143) x78) (= (x138 x143 x1) x146)) (= x13 (x138 x146 x78))) (= (x138 x1 x1) x143))))
(assert (not (and (= (x138 x13 x13) x143) (and (and (= (x138 x143 x143) x146) (= (x138 x143 x13) x78)) (= x1 (x138 x78 x146))))))
(assert (and (and (not (= x143 x1)) (and (and (and (not (= x78 x146)) (and (and (not (= x13 x143)) (and (and (not (= x13 x146)) (not (= x1 x13))) (not (= x13 x78)))) (not (= x1 x146)))) (not (= x146 x143))) (not (= x78 x1)))) (not (= x143 x78))))
(assert (not (and (and (and (= (x138 x13 x13) x143) (= x78 (x138 x13 x1))) (= x146 (x138 x78 x143))) (= (x138 x1 x1) x13))))
(assert (not (and (and (= x146 (x138 x143 x1)) (and (= x1 (x138 x13 x13)) (= (x138 x13 x78) x143))) (= (x138 x78 x78) x13))))
(assert (not (and (and (and (= (x138 x78 x78) x146) (= (x138 x78 x143) x13)) (= (x138 x13 x146) x1)) (= (x138 x143 x143) x78))))
(assert (not (and (and (= (x138 x78 x1) x143) (and (= (x138 x146 x13) x78) (= x1 (x138 x146 x146)))) (= x146 (x138 x13 x13)))))
(assert (not (and (= x78 (x138 x13 x13)) (and (= (x138 x143 x1) x146) (and (= x1 (x138 x78 x78)) (= (x138 x78 x13) x143))))))
(assert (not (and (= x1 (x138 x143 x143)) (and (= x146 (x138 x13 x78)) (and (= x13 (x138 x1 x143)) (= x78 (x138 x1 x1)))))))
(assert (not (and (and (= x146 (x138 x1 x78)) (and (= x1 (x138 x13 x143)) (= x78 (x138 x13 x13)))) (= (x138 x143 x143) x13))))
(assert (not (and (and (= (x138 x13 x146) x143) (and (= (x138 x78 x1) x13) (= (x138 x78 x78) x146))) (= (x138 x1 x1) x78))))
(assert (not (and (and (= x143 (x138 x146 x78)) (and (= (x138 x13 x1) x146) (= (x138 x13 x13) x78))) (= (x138 x1 x1) x13))))
(assert (not (and (and (and (= (x138 x1 x1) x146) (= (x138 x1 x78) x13)) (= (x138 x13 x146) x143)) (= x1 (x138 x78 x78)))))
(assert (not (and (= (x138 x13 x13) x78) (and (= x146 (x138 x1 x143)) (and (= (x138 x78 x78) x143) (= (x138 x78 x13) x1))))))
(assert (not (and (and (= (x138 x143 x78) x1) (and (= (x138 x146 x13) x143) (= x78 (x138 x146 x146)))) (= x146 (x138 x13 x13)))))
(assert (not (and (and (= x1 (x138 x146 x143)) (and (= x146 (x138 x78 x13)) (= (x138 x78 x78) x143))) (= x78 (x138 x13 x13)))))
(assert (let ((x7 (x138 x1 x146)) (x147 (x138 x78 x1)) (x105 (x138 x146 x1)) (x63 (x138 x78 x146)) (x27 (x138 x78 x143)) (x28 (x138 x13 x143)) (x153 (x138 x146 x143)) (x46 (x138 x1 x1)) (x33 (x138 x143 x13)) (x135 (x138 x1 x13)) (x100 (x138 x13 x78)) (x99 (x138 x1 x78)) (x48 (x138 x78 x78)) (x131 (x138 x143 x146)) (x130 (x138 x78 x13)) (x86 (x138 x143 x78)) (x116 (x138 x1 x143)) (x118 (x138 x13 x13)) (x95 (x138 x146 x13)) (x141 (x138 x146 x78)) (x74 (x138 x143 x1)) (x70 (x138 x13 x1)) (x92 (x138 x146 x146)) (x139 (x138 x13 x146)) (x149 (x138 x143 x143))) (and (and (and (and (and (and (and (and (or (or (or (= x118 x1) (or (= x118 x146) (= x118 x13))) (= x78 x118)) (= x118 x143)) (or (= x139 x143) (or (= x78 x139) (or (= x139 x1) (or (= x139 x13) (= x146 x139)))))) (or (or (or (= x70 x1) (or (= x70 x146) (= x13 x70))) (= x78 x70)) (= x143 x70))) (or (or (or (= x1 x100) (or (= x100 x13) (= x100 x146))) (= x100 x78)) (= x100 x143))) (or (= x28 x143) (or (or (= x1 x28) (or (= x146 x28) (= x13 x28))) (= x28 x78)))) (and (or (= x153 x143) (or (= x78 x153) (or (or (= x153 x146) (= x153 x13)) (= x1 x153)))) (and (and (or (or (= x78 x105) (or (= x1 x105) (or (= x105 x146) (= x13 x105)))) (= x143 x105)) (and (or (= x143 x92) (or (= x78 x92) (or (= x1 x92) (or (= x92 x13) (= x92 x146))))) (or (= x95 x143) (or (= x95 x78) (or (= x95 x1) (or (= x95 x13) (= x146 x95))))))) (or (or (= x78 x141) (or (= x1 x141) (or (= x146 x141) (= x13 x141)))) (= x141 x143))))) (and (or (or (or (= x1 x116) (or (= x13 x116) (= x116 x146))) (= x116 x78)) (= x143 x116)) (and (or (= x99 x143) (or (= x78 x99) (or (= x99 x1) (or (= x146 x99) (= x13 x99))))) (and (or (or (= x78 x46) (or (or (= x46 x146) (= x13 x46)) (= x46 x1))) (= x46 x143)) (and (or (or (or (or (= x7 x146) (= x7 x13)) (= x1 x7)) (= x7 x78)) (= x143 x7)) (or (= x143 x135) (or (or (= x135 x1) (or (= x146 x135) (= x135 x13))) (= x78 x135)))))))) (and (and (and (and (or (or (= x78 x63) (or (= x1 x63) (or (= x63 x13) (= x146 x63)))) (= x63 x143)) (or (or (= x78 x130) (or (= x130 x1) (or (= x130 x13) (= x130 x146)))) (= x143 x130))) (or (= x147 x143) (or (= x147 x78) (or (or (= x147 x146) (= x13 x147)) (= x1 x147))))) (or (= x48 x143) (or (or (or (= x48 x146) (= x48 x13)) (= x1 x48)) (= x48 x78)))) (or (= x27 x143) (or (or (= x1 x27) (or (= x27 x13) (= x146 x27))) (= x78 x27))))) (and (and (and (or (or (or (= x1 x74) (or (= x146 x74) (= x13 x74))) (= x78 x74)) (= x143 x74)) (and (or (or (= x78 x33) (or (= x33 x1) (or (= x33 x13) (= x33 x146)))) (= x143 x33)) (or (or (= x78 x131) (or (or (= x131 x13) (= x146 x131)) (= x1 x131))) (= x143 x131)))) (or (= x86 x143) (or (= x78 x86) (or (= x86 x1) (or (= x146 x86) (= x13 x86)))))) (or (= x149 x143) (or (or (or (= x146 x149) (= x149 x13)) (= x149 x1)) (= x78 x149)))))))
(assert (not (and (= (x138 x1 x1) x78) (and (= (x138 x143 x146) x13) (and (= (x138 x78 x1) x143) (= (x138 x78 x78) x146))))))
(assert (not (and (= x78 (x138 x146 x146)) (and (= (x138 x1 x13) x143) (and (= (x138 x78 x146) x1) (= x13 (x138 x78 x78)))))))
(assert (let ((x100 (x138 x78 x78)) (x28 (x138 x143 x143)) (x70 (x138 x1 x1)) (x139 (x138 x146 x146)) (x118 (x138 x13 x13))) (or (and (not (= x143 x28)) (and (not (= x100 x143)) (and (and (not (= x118 x143)) (not (= x143 x139))) (not (= x143 x70))))) (or (or (and (not (= x1 x28)) (and (and (and (not (= x1 x118)) (not (= x139 x1))) (not (= x1 x70))) (not (= x1 x100)))) (or (and (not (= x28 x146)) (and (and (not (= x70 x146)) (and (not (= x139 x146)) (not (= x146 x118)))) (not (= x100 x146)))) (and (and (and (not (= x13 x70)) (and (not (= x13 x118)) (not (= x139 x13)))) (not (= x100 x13))) (not (= x13 x28))))) (and (not (= x78 x28)) (and (not (= x100 x78)) (and (not (= x78 x70)) (and (not (= x118 x78)) (not (= x78 x139))))))))))
(assert (not (and (and (= x1 (x138 x13 x143)) (and (= x13 (x138 x78 x146)) (= (x138 x78 x78) x143))) (= x78 (x138 x146 x146)))))
(assert (not (and (= x146 (x138 x1 x1)) (and (and (= x78 (x138 x146 x1)) (= x143 (x138 x146 x146))) (= (x138 x78 x143) x13)))))
(assert (not (and (= (x138 x146 x146) x78) (and (and (= (x138 x78 x146) x1) (= (x138 x78 x78) x143)) (= x13 (x138 x1 x143))))))
(assert (not (and (and (and (= x78 (x138 x1 x13)) (= x146 (x138 x1 x1))) (= x143 (x138 x78 x146))) (= x1 (x138 x13 x13)))))
(assert (not (and (= (x138 x78 x78) x143) (and (and (= x13 (x138 x143 x78)) (= (x138 x143 x143) x146)) (= (x138 x13 x146) x1)))))
(assert (not (and (and (and (= x13 (x138 x146 x1)) (= x78 (x138 x146 x146))) (= (x138 x13 x78) x143)) (= (x138 x1 x1) x146))))
(assert (not (and (and (= x146 (x138 x78 x13)) (and (= x78 (x138 x1 x143)) (= x13 (x138 x1 x1)))) (= (x138 x143 x143) x1))))
(assert (not (and (= (x138 x143 x143) x146) (and (and (= x1 (x138 x146 x146)) (= x13 (x138 x146 x143))) (= (x138 x13 x1) x78)))))
(assert (not (and (and (and (= (x138 x78 x78) x1) (= (x138 x78 x143) x13)) (= (x138 x13 x1) x146)) (= (x138 x143 x143) x78))))
(assert (not (and (and (and (= (x138 x1 x146) x13) (= (x138 x1 x1) x78)) (= x143 (x138 x13 x78))) (= x1 (x138 x146 x146)))))
(assert (not (and (= (x138 x13 x13) x143) (and (= (x138 x146 x1) x78) (and (= x146 (x138 x143 x13)) (= (x138 x143 x143) x1))))))
(assert (not (and (= x143 (x138 x78 x78)) (and (= x13 (x138 x1 x146)) (and (= x146 (x138 x143 x143)) (= (x138 x143 x78) x1))))))
(assert (not (and (= x13 (x138 x78 x78)) (and (and (= (x138 x13 x78) x146) (= (x138 x13 x13) x143)) (= x1 (x138 x146 x143))))))
(assert (not (and (= x1 (x138 x13 x13)) (and (and (= x143 (x138 x1 x1)) (= x78 (x138 x1 x13))) (= x146 (x138 x78 x143))))))
(assert (not (and (and (and (= x1 (x138 x146 x143)) (= x78 (x138 x146 x146))) (= (x138 x1 x78) x13)) (= x146 (x138 x143 x143)))))
(assert (not (and (= x143 (x138 x146 x146)) (and (= x13 (x138 x78 x1)) (and (= x78 (x138 x143 x146)) (= x1 (x138 x143 x143)))))))
(assert (not (and (and (= (x138 x146 x1) x143) (and (= x1 (x138 x13 x13)) (= x146 (x138 x13 x78)))) (= (x138 x78 x78) x13))))
(assert (not (and (= x13 (x138 x1 x1)) (and (and (= (x138 x13 x1) x146) (= (x138 x13 x13) x143)) (= (x138 x146 x143) x78)))))
(assert (not (and (and (and (= (x138 x146 x146) x13) (= x143 (x138 x146 x78))) (= x1 (x138 x143 x13))) (= (x138 x78 x78) x146))))
(assert (let ((x46 (x138 x1 x1)) (x147 (x138 x1 x78)) (x139 (x138 x146 x13)) (x95 (x138 x13 x146)) (x99 (x138 x78 x1)) (x116 (x138 x143 x1)) (x130 (x138 x13 x78)) (x48 (x138 x78 x78)) (x135 (x138 x13 x1)) (x33 (x138 x13 x143)) (x70 (x138 x1 x13)) (x131 (x138 x146 x143)) (x149 (x138 x143 x143)) (x28 (x138 x143 x13)) (x118 (x138 x13 x13)) (x100 (x138 x78 x13)) (x74 (x138 x1 x143)) (x27 (x138 x143 x78)) (x92 (x138 x146 x146)) (x7 (x138 x146 x1)) (x63 (x138 x146 x78)) (x86 (x138 x78 x143)) (x105 (x138 x1 x146)) (x141 (x138 x78 x146)) (x153 (x138 x143 x146))) (and (and (and (and (and (not (= x147 x74)) (and (not (= x46 x74)) (and (and (not (= x105 x74)) (and (and (not (= x105 x46)) (and (not (= x70 x74)) (and (and (not (= x70 x105)) (not (= x70 x46))) (not (= x147 x70))))) (not (= x105 x147)))) (not (= x147 x46))))) (and (and (and (and (and (and (not (= x63 x92)) (and (not (= x92 x7)) (and (and (not (= x63 x139)) (and (not (= x7 x139)) (not (= x92 x139)))) (not (= x139 x131))))) (not (= x92 x131))) (not (= x63 x7))) (not (= x7 x131))) (not (= x131 x63))) (and (not (= x33 x130)) (and (not (= x33 x135)) (and (and (not (= x95 x33)) (and (and (not (= x95 x135)) (and (not (= x118 x33)) (and (not (= x118 x130)) (and (not (= x135 x118)) (not (= x95 x118)))))) (not (= x95 x130)))) (not (= x135 x130))))))) (and (not (= x48 x86)) (and (and (not (= x99 x48)) (and (not (= x141 x86)) (and (and (and (not (= x86 x100)) (and (not (= x48 x100)) (and (not (= x99 x100)) (not (= x100 x141))))) (not (= x141 x99))) (not (= x141 x48))))) (not (= x86 x99))))) (and (not (= x149 x27)) (and (and (and (and (not (= x153 x27)) (and (not (= x153 x116)) (and (not (= x28 x149)) (and (and (not (= x28 x116)) (not (= x153 x28))) (not (= x28 x27)))))) (not (= x149 x153))) (not (= x27 x116))) (not (= x149 x116))))) (and (and (and (and (not (= x27 x147)) (and (and (not (= x63 x27)) (and (not (= x48 x63)) (and (not (= x147 x63)) (and (and (and (not (= x130 x63)) (not (= x147 x130))) (not (= x48 x130))) (not (= x27 x130)))))) (not (= x147 x48)))) (not (= x48 x27))) (and (and (and (and (not (= x99 x46)) (and (not (= x7 x116)) (and (not (= x99 x7)) (and (and (not (= x135 x116)) (and (not (= x99 x135)) (and (not (= x46 x135)) (not (= x135 x7))))) (not (= x46 x7)))))) (not (= x46 x116))) (not (= x99 x116))) (and (and (and (not (= x153 x105)) (and (not (= x141 x105)) (and (and (and (not (= x105 x92)) (and (and (not (= x141 x95)) (and (not (= x105 x95)) (not (= x92 x95)))) (not (= x95 x153)))) (not (= x141 x92))) (not (= x92 x153))))) (not (= x153 x141))) (and (and (and (and (not (= x28 x139)) (and (not (= x100 x139)) (and (and (not (= x118 x28)) (and (and (not (= x118 x139)) (not (= x118 x70))) (not (= x118 x100)))) (not (= x139 x70))))) (not (= x100 x70))) (not (= x28 x70))) (not (= x100 x28)))))) (and (not (= x149 x86)) (and (not (= x149 x74)) (and (not (= x74 x86)) (and (and (and (and (and (and (not (= x33 x74)) (not (= x131 x33))) (not (= x86 x33))) (not (= x149 x33))) (not (= x131 x74))) (not (= x131 x86))) (not (= x149 x131))))))))))
(assert (not (and (= x13 (x138 x143 x143)) (and (= (x138 x78 x146) x1) (and (= (x138 x13 x13) x146) (= x78 (x138 x13 x143)))))))
(assert (not (and (= (x138 x146 x146) x78) (and (and (= (x138 x78 x146) x13) (= (x138 x78 x78) x1)) (= x143 (x138 x13 x1))))))
(assert (not (and (= x78 (x138 x1 x1)) (and (and (= x146 (x138 x78 x1)) (= x143 (x138 x78 x78))) (= (x138 x146 x143) x13)))))
(assert (not (and (= (x138 x78 x78) x13) (and (and (= x146 (x138 x13 x13)) (= x1 (x138 x13 x78))) (= x143 (x138 x1 x146))))))
(assert (not (and (= (x138 x78 x78) x146) (and (= x143 (x138 x1 x13)) (and (= x1 (x138 x146 x78)) (= x13 (x138 x146 x146)))))))
(assert (not (and (and (= x78 (x138 x13 x1)) (and (= x13 (x138 x143 x146)) (= x1 (x138 x143 x143)))) (= x143 (x138 x146 x146)))))
(assert (not (and (and (= (x138 x78 x143) x1) (and (= x143 (x138 x146 x146)) (= (x138 x146 x13) x78))) (= (x138 x13 x13) x146))))
(assert (not (and (and (= x143 (x138 x146 x1)) (and (= x146 (x138 x78 x13)) (= (x138 x78 x78) x1))) (= x78 (x138 x13 x13)))))
(assert (not (and (= (x138 x143 x143) x1) (and (and (= x13 (x138 x1 x143)) (= (x138 x1 x1) x146)) (= x78 (x138 x13 x146))))))
(assert (not (and (= x1 (x138 x78 x78)) (and (and (= (x138 x1 x1) x13) (= (x138 x1 x78) x146)) (= (x138 x146 x13) x143)))))
(assert (not (and (and (and (= x143 (x138 x1 x146)) (= x78 (x138 x1 x1))) (= (x138 x143 x78) x13)) (= (x138 x146 x146) x1))))
(assert (not (and (and (= x1 (x138 x143 x13)) (and (= (x138 x78 x78) x13) (= (x138 x78 x146) x143))) (= (x138 x146 x146) x78))))
(assert (not (and (and (and (= x13 (x138 x143 x146)) (= x78 (x138 x143 x143))) (= (x138 x13 x78) x1)) (= (x138 x146 x146) x143))))
(assert (not (and (= x146 (x138 x78 x78)) (and (and (= x13 (x138 x146 x78)) (= x1 (x138 x146 x146))) (= x143 (x138 x13 x1))))))
(assert (not (and (= (x138 x143 x143) x78) (and (= (x138 x1 x146) x13) (and (= (x138 x78 x78) x146) (= x1 (x138 x78 x143)))))))
(assert (not (and (and (and (= x143 (x138 x78 x1)) (= x13 (x138 x78 x78))) (= (x138 x143 x13) x146)) (= x78 (x138 x1 x1)))))
(assert (not (and (= x78 (x138 x143 x143)) (and (and (= (x138 x78 x143) x146) (= (x138 x78 x78) x1)) (= (x138 x146 x1) x13)))))
(assert (not (and (and (= (x138 x13 x143) x1) (and (= x143 (x138 x146 x146)) (= x13 (x138 x146 x78)))) (= (x138 x78 x78) x146))))
(assert (not (and (and (and (= x13 (x138 x1 x1)) (= (x138 x1 x146) x143)) (= (x138 x143 x13) x78)) (= (x138 x146 x146) x1))))
(assert (not (and (and (and (= (x138 x1 x1) x146) (= (x138 x1 x78) x143)) (= x13 (x138 x143 x146))) (= (x138 x78 x78) x1))))
(assert (not (and (= x143 (x138 x146 x146)) (and (= (x138 x1 x78) x13) (and (= (x138 x143 x143) x78) (= (x138 x143 x146) x1))))))
(assert (not (and (= (x138 x78 x78) x13) (and (= (x138 x1 x143) x146) (and (= (x138 x13 x78) x1) (= (x138 x13 x13) x143))))))
(assert (not (and (= x13 (x138 x146 x146)) (and (= x143 (x138 x1 x78)) (and (= x78 (x138 x13 x13)) (= (x138 x13 x146) x1))))))
(assert (not (and (and (= x78 (x138 x1 x143)) (and (= x143 (x138 x13 x13)) (= x1 (x138 x13 x146)))) (= x13 (x138 x146 x146)))))
(assert (not (and (and (and (= (x138 x1 x146) x78) (= x143 (x138 x1 x1))) (= (x138 x78 x143) x13)) (= (x138 x146 x146) x1))))
(assert (not (and (= x143 (x138 x1 x1)) (and (= x146 (x138 x78 x13)) (and (= (x138 x143 x1) x78) (= x13 (x138 x143 x143)))))))
(assert (not (and (and (= x143 (x138 x78 x1)) (and (= (x138 x13 x13) x1) (= (x138 x13 x146) x78))) (= (x138 x146 x146) x13))))
(assert (not (and (= (x138 x1 x1) x146) (and (= (x138 x78 x13) x143) (and (= (x138 x146 x1) x78) (= (x138 x146 x146) x13))))))
(assert (not (and (= (x138 x143 x143) x1) (and (and (= x78 (x138 x1 x1)) (= (x138 x1 x143) x146)) (= (x138 x146 x78) x13)))))
(assert (not (and (and (= (x138 x146 x13) x78) (and (= (x138 x143 x143) x13) (= (x138 x143 x1) x146))) (= x143 (x138 x1 x1)))))
(assert (not (and (and (= x146 (x138 x143 x78)) (and (= x143 (x138 x1 x13)) (= x78 (x138 x1 x1)))) (= x1 (x138 x13 x13)))))
(assert (not (and (and (= (x138 x146 x143) x78) (and (= (x138 x1 x13) x146) (= x143 (x138 x1 x1)))) (= (x138 x13 x13) x1))))
(assert (not (and (and (= x13 (x138 x143 x78)) (and (= x143 (x138 x146 x1)) (= (x138 x146 x146) x78))) (= (x138 x1 x1) x146))))
(assert (not (and (= (x138 x13 x13) x78) (and (= x143 (x138 x1 x146)) (and (= (x138 x78 x78) x146) (= (x138 x78 x13) x1))))))
(assert (not (and (= (x138 x13 x13) x1) (and (= (x138 x146 x78) x143) (and (= (x138 x1 x1) x78) (= (x138 x1 x13) x146))))))
(assert (let ((x101 (x138 x146 x146)) (x38 (x138 x78 x146)) (x34 (x138 x78 x1)) (x64 (x138 x13 x146)) (x69 (x138 x13 x13)) (x87 (x138 x143 x78)) (x110 (x138 x1 x13)) (x57 (x138 x146 x78)) (x77 (x138 x1 x78)) (x114 (x138 x143 x13)) (x129 (x138 x1 x143)) (x52 (x138 x146 x143)) (x98 (x138 x143 x1)) (x137 (x138 x1 x1)) (x145 (x138 x143 x143)) (x20 (x138 x78 x143)) (x94 (x138 x13 x1)) (x76 (x138 x146 x1)) (x29 (x138 x78 x78)) (x89 (x138 x1 x146)) (x41 (x138 x13 x78)) (x124 (x138 x146 x13)) (x106 (x138 x143 x146)) (x15 (x138 x13 x143)) (x39 (x138 x78 x13))) (let ((x28 (not (= x13 x110))) (x46 (not (= x13 x57))) (x59 (not (= x114 x143))) (x85 (not (= x146 x76))) (x18 (not (= x124 x146))) (x11 (not (= x1 x98))) (x139 (not (= x124 x13))) (x74 (not (= x13 x87))) (x99 (not (= x34 x13))) (x109 (not (= x41 x78))) (x96 (not (= x101 x146))) (x19 (not (= x1 x145))) (x151 (not (= x98 x78))) (x9 (not (= x146 x15))) (x33 (not (= x98 x13))) (x25 (not (= x77 x146))) (x144 (not (= x146 x39))) (x131 (not (= x129 x13))) (x154 (not (= x76 x1))) (x120 (not (= x146 x69))) (x2 (not (= x1 x15))) (x88 (not (= x1 x34))) (x108 (not (= x94 x78))) (x5 (not (= x101 x78))) (x66 (not (= x87 x143))) (x7 (not (= x38 x13))) (x10 (not (= x146 x29))) (x125 (not (= x110 x1))) (x55 (not (= x137 x1))) (x75 (not (= x34 x78))) (x53 (not (= x69 x143))) (x105 (not (= x76 x13))) (x118 (not (= x69 x13))) (x63 (not (= x13 x114))) (x14 (not (= x38 x1))) (x134 (not (= x1 x52))) (x51 (not (= x1 x129))) (x79 (not (= x146 x34))) (x24 (not (= x69 x1))) (x113 (not (= x101 x143))) (x50 (not (= x124 x1))) (x133 (not (= x69 x78))) (x135 (not (= x13 x41))) (x54 (not (= x41 x1))) (x122 (not (= x78 x106))) (x32 (not (= x39 x143))) (x141 (not (= x137 x13))) (x93 (not (= x78 x52))) (x23 (not (= x106 x146))) (x112 (not (= x145 x146))) (x132 (not (= x1 x64))) (x8 (not (= x20 x78))) (x45 (not (= x15 x143))) (x156 (not (= x76 x78))) (x149 (not (= x13 x145))) (x3 (not (= x20 x1))) (x111 (not (= x94 x143))) (x158 (not (= x1 x29))) (x152 (not (= x38 x146))) (x21 (not (= x1 x89))) (x65 (not (= x146 x114))) (x127 (not (= x146 x57))) (x121 (not (= x78 x89))) (x68 (not (= x143 x124))) (x119 (not (= x1 x114))) (x103 (not (= x89 x146))) (x48 (not (= x13 x106))) (x47 (not (= x41 x143))) (x130 (not (= x13 x29))) (x42 (not (= x1 x101))) (x12 (not (= x143 x52))) (x16 (not (= x78 x137))) (x97 (not (= x143 x76))) (x82 (not (= x89 x143))) (x115 (not (= x38 x143))) (x26 (not (= x143 x145))) (x22 (not (= x143 x64))) (x62 (not (= x78 x145))) (x95 (not (= x94 x13))) (x73 (not (= x78 x87))) (x71 (not (= x39 x78))) (x126 (not (= x78 x77))) (x90 (not (= x106 x143))) (x58 (not (= x87 x1))) (x140 (not (= x143 x110))) (x61 (not (= x114 x78))) (x148 (not (= x146 x129))) (x49 (not (= x57 x78))) (x123 (not (= x129 x143))) (x35 (not (= x146 x137))) (x44 (not (= x78 x64))) (x67 (not (= x146 x52))) (x147 (not (= x13 x15))) (x31 (not (= x94 x1))) (x60 (not (= x1 x106))) (x56 (not (= x94 x146))) (x150 (not (= x41 x146))) (x102 (not (= x29 x78))) (x84 (not (= x143 x98))) (x116 (not (= x77 x13))) (x30 (not (= x87 x146))) (x72 (not (= x1 x77))) (x136 (not (= x110 x146))) (x117 (not (= x1 x39))) (x40 (not (= x34 x143))) (x6 (not (= x15 x78))) (x153 (not (= x13 x39))) (x86 (not (= x13 x20))) (x157 (not (= x78 x38))) (x37 (not (= x143 x137))) (x36 (not (= x146 x98))) (x81 (not (= x57 x143))) (x27 (not (= x13 x52))) (x104 (not (= x146 x64))) (x155 (not (= x57 x1))) (x70 (not (= x13 x64))) (x91 (not (= x129 x78))) (x107 (not (= x146 x20))) (x92 (not (= x13 x89))) (x100 (not (= x13 x101))) (x142 (not (= x143 x29))) (x17 (not (= x20 x143))) (x128 (not (= x78 x110))) (x83 (not (= x77 x143))) (x80 (not (= x78 x124)))) (or (and (and (and (or x66 x17) (and (or x84 x123) (and (or x59 x45) (or x12 x90)))) (or x26 x26)) (and (and (and (and (or x83 x40) (and (and (or x140 x111) (or x82 x97)) (or x37 x37))) (or x84 x123)) (and (and (or x59 x45) (and (and (and (or x53 x53) (or x22 x68)) (or x140 x111)) (or x32 x47))) (and (or x12 x90) (and (or x81 x115) (and (and (or x68 x22) (or x113 x113)) (or x97 x82)))))) (and (or x66 x17) (and (or x142 x142) (and (and (or x81 x115) (or x47 x32)) (or x40 x83)))))) (or (or (or (and (and (and (or x86 x74) (and (and (or x99 x116) (and (or x7 x46) (or x135 x153))) (or x130 x130))) (and (and (and (or x147 x63) (and (and (and (or x118 x118) (or x139 x70)) (or x28 x95)) (or x153 x135))) (and (and (and (or x92 x105) (and (or x100 x100) (or x70 x139))) (or x46 x7)) (or x48 x27))) (and (and (or x99 x116) (and (and (or x92 x105) (or x28 x95)) (or x141 x141))) (or x131 x33)))) (and (or x149 x149) (and (and (or x131 x33) (and (or x63 x147) (or x48 x27))) (or x86 x74)))) (and (and (and (and (and (and (or x144 x150) (and (and (or x120 x120) (or x18 x104)) (or x56 x136))) (or x9 x65)) (and (and (and (and (or x96 x96) (or x104 x18)) (or x103 x85)) (or x127 x152)) (or x23 x67))) (and (or x36 x148) (and (and (or x35 x35) (and (or x136 x56) (or x103 x85))) (or x79 x25)))) (and (or x107 x30) (and (and (or x79 x25) (and (or x127 x152) (or x144 x150))) (or x10 x10)))) (and (or x112 x112) (and (and (or x36 x148) (and (or x23 x67) (or x65 x9))) (or x107 x30))))) (and (and (and (or x58 x3) (and (or x51 x11) (and (or x2 x119) (or x60 x134)))) (or x19 x19)) (and (and (and (or x51 x11) (and (and (and (or x154 x21) (or x125 x31)) (or x55 x55)) (or x72 x88))) (and (and (or x119 x2) (and (and (or x31 x125) (and (or x50 x132) (or x24 x24))) (or x54 x117))) (and (or x134 x60) (and (or x155 x14) (and (and (or x42 x42) (or x50 x132)) (or x154 x21)))))) (and (or x58 x3) (and (and (and (or x54 x117) (or x155 x14)) (or x88 x72)) (or x158 x158)))))) (and (and (and (or x73 x8) (and (or x102 x102) (and (or x126 x75) (and (or x49 x157) (or x109 x71))))) (and (and (and (and (or x157 x49) (and (and (or x80 x44) (or x5 x5)) (or x156 x121))) (or x93 x122)) (and (and (or x71 x109) (and (and (or x44 x80) (or x133 x133)) (or x128 x108))) (or x61 x6))) (and (or x151 x91) (and (or x75 x126) (and (or x16 x16) (and (or x108 x128) (or x121 x156))))))) (and (and (and (or x91 x151) (and (or x93 x122) (or x6 x61))) (or x8 x73)) (or x62 x62))))))))
(assert (not (and (and (= (x138 x146 x13) x78) (and (= x13 (x138 x1 x1)) (= (x138 x1 x143) x146))) (= (x138 x143 x143) x1))))
(assert (not (and (= (x138 x1 x1) x13) (and (= x146 (x138 x143 x78)) (and (= x78 (x138 x13 x13)) (= (x138 x13 x1) x143))))))
(assert (not (and (and (and (= x1 (x138 x143 x146)) (= x13 (x138 x143 x143))) (= x78 (x138 x1 x13))) (= (x138 x146 x146) x143))))
(assert (not (and (and (= x1 (x138 x143 x146)) (and (= x143 (x138 x78 x13)) (= x146 (x138 x78 x78)))) (= x78 (x138 x13 x13)))))
(assert (not (and (and (and (= x143 (x138 x1 x1)) (= (x138 x1 x146) x13)) (= x78 (x138 x13 x143))) (= (x138 x146 x146) x1))))
(assert (not (and (= x1 (x138 x146 x146)) (and (= (x138 x78 x13) x143) (and (= x78 (x138 x1 x146)) (= x13 (x138 x1 x1)))))))
(assert (not (and (and (= x1 (x138 x13 x78)) (and (= x13 (x138 x146 x143)) (= x78 (x138 x146 x146)))) (= x146 (x138 x143 x143)))))
(assert (not (and (= x143 (x138 x1 x1)) (and (and (= (x138 x143 x1) x78) (= x146 (x138 x143 x143))) (= x13 (x138 x78 x146))))))
(assert (not (and (= x143 (x138 x146 x146)) (and (and (= x78 (x138 x143 x146)) (= (x138 x143 x143) x13)) (= x1 (x138 x78 x13))))))
(assert (not (and (= (x138 x146 x146) x13) (and (and (= x1 (x138 x13 x13)) (= x143 (x138 x13 x146))) (= (x138 x143 x1) x78)))))
(assert (let ((x131 (x138 x146 x143)) (x120 (x138 x143 x146)) (x154 (x138 x143 x78)) (x6 (x138 x143 x143)) (x28 (x138 x13 x78)) (x95 (x138 x13 x143)) (x52 (x138 x1 x1)) (x141 (x138 x1 x13)) (x70 (x138 x13 x146)) (x27 (x138 x146 x1)) (x139 (x138 x13 x13)) (x33 (x138 x146 x78)) (x100 (x138 x13 x1)) (x153 (x138 x78 x13)) (x50 (x138 x78 x78)) (x132 (x138 x78 x143)) (x137 (x138 x78 x1)) (x35 (x138 x143 x1)) (x136 (x138 x1 x143)) (x105 (x138 x146 x13)) (x135 (x138 x143 x13)) (x69 (x138 x78 x146)) (x48 (x138 x146 x146)) (x106 (x138 x1 x78)) (x149 (x138 x1 x146))) (let ((x39 (= x78 x48)) (x44 (= x143 x106)) (x25 (= x78 x52)) (x114 (= x143 x70)) (x130 (= x70 x13)) (x59 (= x135 x143)) (x113 (= x131 x1)) (x76 (= x13 x27)) (x77 (= x141 x1)) (x23 (= x69 x13)) (x81 (= x131 x78)) (x73 (= x146 x6)) (x157 (= x13 x132)) (x140 (= x136 x1)) (x145 (= x153 x146)) (x79 (= x78 x27)) (x11 (= x78 x106)) (x32 (= x78 x35)) (x5 (= x143 x50)) (x111 (= x1 x132)) (x21 (= x146 x50)) (x85 (= x146 x52)) (x80 (= x143 x33)) (x40 (= x78 x136)) (x103 (= x27 x146)) (x31 (= x106 x146)) (x61 (= x146 x154)) (x93 (= x146 x131)) (x155 (= x33 x1)) (x86 (= x48 x146)) (x36 (= x28 x13)) (x109 (= x136 x13)) (x94 (= x1 x48)) (x134 (= x33 x78)) (x119 (= x69 x78)) (x115 (= x95 x78)) (x10 (= x149 x143)) (x67 (= x13 x137)) (x96 (= x100 x13)) (x102 (= x146 x35)) (x30 (= x106 x13)) (x91 (= x132 x146)) (x118 (= x13 x139)) (x126 (= x120 x146)) (x17 (= x132 x143)) (x122 (= x95 x146)) (x49 (= x13 x6)) (x104 (= x13 x141)) (x152 (= x78 x149)) (x45 (= x120 x143)) (x87 (= x27 x143)) (x151 (= x146 x136)) (x129 (= x1 x100)) (x65 (= x52 x143)) (x54 (= x1 x137)) (x72 (= x50 x1)) (x51 (= x78 x50)) (x116 (= x105 x13)) (x60 (= x78 x28)) (x88 (= x106 x1)) (x63 (= x48 x13)) (x121 (= x35 x13)) (x98 (= x27 x1)) (x75 (= x135 x146)) (x101 (= x149 x13)) (x124 (= x70 x1)) (x107 (= x13 x50)) (x117 (= x69 x1)) (x7 (= x139 x1)) (x123 (= x131 x143)) (x20 (= x100 x143)) (x142 (= x78 x6)) (x46 (= x78 x139)) (x14 (= x28 x1)) (x128 (= x13 x135)) (x158 (= x153 x78)) (x62 (= x1 x120)) (x156 (= x154 x13)) (x74 (= x146 x70)) (x148 (= x13 x33)) (x112 (= x69 x146)) (x2 (= x78 x137)) (x64 (= x1 x105)) (x55 (= x1 x153)) (x37 (= x120 x78)) (x19 (= x137 x143)) (x99 (= x143 x139)) (x108 (= x13 x120)) (x58 (= x143 x153)) (x68 (= x154 x1)) (x66 (= x143 x136)) (x97 (= x78 x135)) (x38 (= x146 x149)) (x22 (= x1 x95)) (x57 (= x141 x146)) (x89 (= x52 x13)) (x84 (= x95 x143)) (x56 (= x100 x146)) (x150 (= x141 x78)) (x92 (= x146 x139)) (x71 (= x131 x13)) (x127 (= x100 x78)) (x15 (= x143 x105)) (x16 (= x13 x95)) (x144 (= x52 x1)) (x3 (= x143 x69)) (x24 (= x146 x137)) (x42 (= x28 x146)) (x47 (= x154 x78)) (x26 (= x143 x6)) (x12 (= x143 x154)) (x82 (= x6 x1)) (x110 (= x78 x105)) (x8 (= x1 x135)) (x53 (= x1 x35)) (x83 (= x78 x132)) (x147 (= x146 x105)) (x34 (= x149 x1)) (x18 (= x48 x143)) (x90 (= x143 x35)) (x29 (= x141 x143)) (x9 (= x13 x153)) (x133 (= x28 x143)) (x125 (= x33 x146)) (x41 (= x70 x78))) (and (and (and (and (and (and (and (or (or (or x150 (or x110 x46)) x158) x97) (or (or (or x127 (or x41 x46)) x60) x115)) (and (and (or (or x14 (or (or x124 x7) x129)) x22) (or (or x55 (or (or x7 x64) x77)) x8)) (and (and (or x122 (or x42 (or (or x92 x74) x56))) (or (or (or (or x92 x147) x57) x145) x75)) (and (or (or x9 (or x104 (or x116 x118))) x128) (or (or x36 (or (or x130 x118) x96)) x16))))) (and (or (or (or x20 (or x99 x114)) x133) x84) (or (or x58 (or (or x15 x99) x29)) x59))) (and (and (or (or x80 (or x87 (or x18 x15))) x123) (or (or (or (or x114 x18) x10) x3) x45)) (and (and (and (or (or x117 (or (or x94 x124) x34)) x62) (or (or (or (or x94 x64) x98) x155) x113)) (and (and (or (or (or x101 (or x130 x63)) x23) x108) (or (or (or x76 (or x116 x63)) x148) x71)) (and (or x93 (or x125 (or x103 (or x86 x147)))) (or x126 (or (or x38 (or x86 x74)) x112))))) (and (or x81 (or x134 (or (or x110 x39) x79))) (or x37 (or (or (or x39 x41) x152) x119)))))) (and (and (or (or (or x65 (or x87 x20)) x19) x90) (or (or x44 (or (or x10 x29) x65)) x66)) (and (and (and (and (or (or x24 (or (or x56 x103) x85)) x102) (or (or (or x85 (or x57 x38)) x31) x151)) (and (or x121 (or (or (or x96 x76) x89) x67)) (or (or (or (or x101 x104) x89) x30) x109))) (and (or x140 (or (or (or x34 x77) x144) x88)) (or (or x54 (or (or x129 x98) x144)) x53))) (and (or (or (or (or x127 x79) x25) x2) x32) (or (or (or x25 (or x150 x152)) x11) x40))))) (and (and (or (or (or x19 (or x3 x58)) x5) x17) (or x12 (or x5 (or (or x133 x80) x44)))) (and (and (and (or x111 (or x72 (or x54 (or x117 x55)))) (or (or (or x88 (or x14 x155)) x72) x68)) (and (and (or x91 (or x21 (or (or x145 x112) x24))) (or (or x21 (or x31 (or x125 x42))) x61)) (and (or x157 (or x107 (or x67 (or x9 x23)))) (or x156 (or (or x30 (or x36 x148)) x107))))) (and (or (or (or x2 (or x119 x158)) x51) x83) (or x47 (or x51 (or x11 (or x60 x134)))))))) (and (and (or x26 (or (or (or x123 x84) x66) x17)) (or x26 (or x12 (or (or x59 x45) x90)))) (and (and (or (or (or (or x97 x37) x32) x47) x142) (or x142 (or x83 (or (or x115 x81) x40)))) (and (and (or x82 (or (or (or x113 x22) x140) x111)) (or (or (or (or x62 x8) x53) x68) x82)) (and (and (or x49 (or (or (or x16 x71) x109) x157)) (or x49 (or (or x121 (or x108 x128)) x156))) (and (or (or (or (or x93 x122) x151) x91) x73) (or (or x61 (or x102 (or x75 x126))) x73))))))))))
(assert (not (and (and (= x146 (x138 x13 x1)) (and (= x13 (x138 x143 x78)) (= x1 (x138 x143 x143)))) (= (x138 x78 x78) x143))))
(assert (not (and (and (and (= (x138 x13 x13) x1) (= (x138 x13 x143) x146)) (= x78 (x138 x146 x1))) (= x13 (x138 x143 x143)))))
(assert (not (and (and (= x146 (x138 x13 x143)) (and (= (x138 x78 x78) x143) (= (x138 x78 x1) x13))) (= x78 (x138 x1 x1)))))
(assert (not (and (= x146 (x138 x13 x13)) (and (and (= (x138 x146 x13) x143) (= (x138 x146 x146) x1)) (= x78 (x138 x143 x1))))))
(assert (not (and (and (= x1 (x138 x78 x143)) (and (= x143 (x138 x13 x13)) (= x78 (x138 x13 x146)))) (= (x138 x146 x146) x13))))
(assert (not (and (= x143 (x138 x78 x78)) (and (and (= (x138 x143 x78) x146) (= (x138 x143 x143) x1)) (= x13 (x138 x146 x1))))))
(assert (not (and (= x1 (x138 x78 x78)) (and (= (x138 x146 x143) x13) (and (= x146 (x138 x1 x78)) (= (x138 x1 x1) x143))))))
(assert (not (and (and (and (= x13 (x138 x78 x78)) (= (x138 x78 x143) x1)) (= x146 (x138 x1 x13))) (= (x138 x143 x143) x78))))
(assert (not (and (and (and (= (x138 x146 x78) x143) (= x1 (x138 x146 x146))) (= (x138 x143 x1) x13)) (= x146 (x138 x78 x78)))))
(assert (not (and (= (x138 x143 x143) x146) (and (and (= x13 (x138 x146 x146)) (= x78 (x138 x146 x143))) (= (x138 x78 x13) x1)))))
(assert (not (and (and (= (x138 x146 x13) x143) (and (= x146 (x138 x78 x1)) (= x13 (x138 x78 x78)))) (= (x138 x1 x1) x78))))
(assert (not (and (and (and (= (x138 x13 x13) x146) (= x78 (x138 x13 x1))) (= x143 (x138 x78 x146))) (= (x138 x1 x1) x13))))
(assert (not (and (and (and (= (x138 x1 x78) x13) (= (x138 x1 x1) x143)) (= x146 (x138 x13 x143))) (= x1 (x138 x78 x78)))))
(assert (not (and (= x13 (x138 x1 x1)) (and (= (x138 x143 x146) x78) (and (= x146 (x138 x13 x13)) (= (x138 x13 x1) x143))))))
(assert (not (and (= (x138 x143 x143) x146) (and (= (x138 x78 x1) x13) (and (= (x138 x146 x146) x1) (= (x138 x146 x143) x78))))))
(assert (not (and (and (= x78 (x138 x13 x143)) (and (= x143 (x138 x146 x146)) (= x13 (x138 x146 x1)))) (= (x138 x1 x1) x146))))
(assert (not (and (and (= x1 (x138 x143 x78)) (and (= x78 (x138 x13 x13)) (= x143 (x138 x13 x146)))) (= x13 (x138 x146 x146)))))
(assert (not (and (and (and (= x78 (x138 x146 x146)) (= x1 (x138 x146 x13))) (= (x138 x1 x78) x143)) (= (x138 x13 x13) x146))))
(assert (not (and (and (= (x138 x143 x13) x78) (and (= x13 (x138 x146 x146)) (= x143 (x138 x146 x1)))) (= (x138 x1 x1) x146))))
(assert (not (and (= x143 (x138 x1 x1)) (and (and (= x146 (x138 x143 x143)) (= (x138 x143 x1) x13)) (= x78 (x138 x13 x146))))))
(assert (not (and (and (= (x138 x143 x13) x146) (and (= x13 (x138 x1 x1)) (= x143 (x138 x1 x78)))) (= (x138 x78 x78) x1))))
(assert (not (and (= x143 (x138 x13 x13)) (and (= x146 (x138 x78 x1)) (and (= x1 (x138 x143 x143)) (= x78 (x138 x143 x13)))))))
(assert (not (and (= x13 (x138 x143 x143)) (and (and (= (x138 x13 x143) x146) (= x78 (x138 x13 x13))) (= x1 (x138 x146 x78))))))
(assert (not (and (= (x138 x78 x78) x13) (and (and (= x143 (x138 x13 x78)) (= (x138 x13 x13) x146)) (= x1 (x138 x143 x146))))))
(assert (not (and (and (and (= x1 (x138 x146 x78)) (= x143 (x138 x146 x146))) (= (x138 x1 x143) x13)) (= x146 (x138 x78 x78)))))
(assert (not (and (and (and (= x13 (x138 x143 x143)) (= x146 (x138 x143 x78))) (= x1 (x138 x146 x13))) (= x143 (x138 x78 x78)))))
(assert (not (and (and (= (x138 x78 x146) x13) (and (= x146 (x138 x1 x1)) (= x78 (x138 x1 x143)))) (= (x138 x143 x143) x1))))
(assert (not (and (and (and (= x1 (x138 x143 x13)) (= x78 (x138 x143 x143))) (= (x138 x1 x78) x146)) (= (x138 x13 x13) x143))))
(assert (not (and (and (= x1 (x138 x146 x78)) (and (= x146 (x138 x143 x13)) (= (x138 x143 x143) x78))) (= (x138 x13 x13) x143))))
(assert (not (and (= (x138 x78 x78) x143) (and (and (= (x138 x143 x78) x1) (= (x138 x143 x143) x13)) (= x146 (x138 x1 x13))))))
(assert (not (and (= x146 (x138 x143 x143)) (and (and (= (x138 x146 x146) x13) (= x1 (x138 x146 x143))) (= (x138 x1 x13) x78)))))
(assert (not (and (and (and (= x146 (x138 x13 x13)) (= x1 (x138 x13 x143))) (= x78 (x138 x1 x146))) (= x13 (x138 x143 x143)))))
(assert (not (and (and (and (= (x138 x13 x13) x1) (= (x138 x13 x143) x78)) (= (x138 x78 x1) x146)) (= (x138 x143 x143) x13))))
(assert (not (and (and (and (= (x138 x1 x1) x146) (= (x138 x1 x13) x143)) (= x78 (x138 x143 x146))) (= x1 (x138 x13 x13)))))
(check-sat)
(exit)
